## WARNING: All this data is fake and should only be used for testing purposes
## System description
##

SystemName         my System
SystemLabel        system


##
## Structure information
##

# Use Manolo's optimised DZP basis
%block PAO.Basis
Si  3 0.2658542
 n=2  0  2  E  4.9054837  -0.5515252
   5.6679504  1.8444465
   1.000   1.000
 n=3  1  2  E  15.6700423  -0.8457466
   6.6151626  3.9384685
   1.000   1.000
 n=3  2  1  E  44.0436726  -0.4370817
   4.5403665
   1.000
P  3 0.1963113
 n=3  0  2  E  40.2507184  -0.7320000
   5.8661651  -0.6144891
   1.000   1.000
 n=3  1  2  E  78.4504409  -0.8743580
   6.8187128  -0.3120693
   1.000   1.000
 n=3  2  1  E  32.5566663  -0.2998069
   4.9053838
   1.000
%endblock PAO.Basis

MeshCutoff         500.0 Ry
MaxSCFIterations   20

# Pulay convergence accelerator
DM.NumberPulay       8
DM.MixingWeight      0.00001
DM.Tolerance         1.d-4

SolutionMethod     diagon
OccupationFunction    FD
OccupationMPOrder  1
ElectronicTemperature 100 K


# Conjugate gradient for geometry optimisation
MD.TypeOfRun       cg
MD.VariableCell    .true.
MD.NumCGsteps      100
MD.MaxForceTol     0.001 eV/Ang


%block kgridMonkhorstPack
9    0    0    0
0    1    0    0
0    0    1    0
%endblock kgridMonkhorstPack

##

