Gamma centered Monkhorst Pack WARNING: this data is completely fake and should only be used for testing purposes
0
Gamma
 8  8  8   
 0  0  0

