dia3x3x3             WARNING: this data is completely fake and should only be used for testing                   
   1.00000000000000     
    10.6863390000000003    0.0000000000000000    0.0000000000000000
     0.0000000000000000   10.6863390000000003    0.0000000000000000
     0.0000000000000000    0.0000000000000000   10.6863390000000003
 216
Direct
  0.0833333333333286  0.0833333333333286  0.0833333333333286
  0.2500000000000000  0.2500000000000000  0.0833333333333286
  0.4166666666666998  0.4166666666666998  0.0833333333333286
  
  0.00000000E+00  0.00000000E+00  0.00000000E+00
  0.00000000E+00  0.00000000E+00  0.00000000E+00
  0.00000000E+00  0.00000000E+00  0.00000000E+00
