#
# Keywords:
#
md conv 
#
# Options
#output movie xyz foobar