opti conp sm
library foobar
output xyz ss