Diamond 3x3x3 N-V N atom at (0,0,0)    WARNING: this data is completely fake and should only be used for testing purpose  
   1.00000000000000     
    10.6851970403940548    0.0000000000000000    0.0000000000000000
     0.0000000000000000   10.6851970403940548    0.0000000000000000
     0.0000000000000000    0.0000000000000000   10.6851970403940548
   C    N 
 214   1
Direct
  