System = NV-Diamond Static  WARNING: This data is completely fake and should only be used for testing purposes

NEDOS= 600
ISPIN= 1 	! spin polarised
LREAL= Auto
ISMEAR =-1
IALGO = 48
EDIFF = 5E-6
NELMIN = 4     	!  do a minimum of four electronic steps
PREC = Accurate
ADDGRID=TRUE 
NELECT = 800
ISTART=0
