Diamond 3x3x3 N-V N atom at (0,0,0) WARNING: this data is compltely fake and should only be used for testing purposes
   1.00000000000000     
    10.6851970403940548    0.0000000000000000    0.0000000000000000
     0.0000000000000000   10.6851970403940548    0.0000000000000000
     0.0000000000000000    0.0000000000000000   10.6851970403940548
 214   1
Direct
  0.2498372762988201  0.2498372762988201  0.0830429757354663
  
  0.00000000E+00  0.00000000E+00  0.00000000E+00
  0.00000000E+00 
  0.00000000E+00  0.00000000E+00  0.00000000E+00
  0.00000000E+00  0.00000000E+00  0.00000000E+00
  0.00000000E+00  0.00000000E+00  0.00000000E+00
  0.00000000E+00  0.00000000E+00  0.00000000E+00
  0.00000000E+00  0.00000000E+00  0.00000000E+00
  0.00000000E+00  0.00000000E+00  0.00000000E+00
  0.00000000E+00  0.00000000E+00  0.00000000E+00
  0.00000000E+00  0.00000000E+00  0.00000000E+00
  0.00000000E+00  0.00000000E+00  0.00000000E+00
  0.00000000E+00  0.00000000E+00  0.00000000E+00
  0.00000000E+00  0.00000000E+00  0.00000000E+00
  0.00000000E+00  0.00000000E+00  0.00000000E+00
  0.00000000E+00  0.00000000E+00  0.00000000E+00
  0.00000000E+00  0.00000000E+00  0.00000000E+00
  0.00000000E+00  0.00000000E+00  0.00000000E+00
  0.00000000E+00  0.00000000E+00  0.00000000E+00
  0.00000000E+00  0.00000000E+00  0.00000000E+00
